c *********************************
c * Circuit generated by BenCGen
c *
c * Parity_31
c *
c * Ports with 1 gate(s): 1
c * Ports with 2 gate(s): 31
c * Total gates: 32
c *********************************
p cnf 63 125
1 34 0
-1 -34 0
1 -33 0
34 -33 0
-1 -34 33 0
1 2 -35 0
-1 2 35 0
1 -2 35 0
-1 -2 -35 0
3 4 -36 0
-3 4 36 0
3 -4 36 0
-3 -4 -36 0
5 6 -37 0
-5 6 37 0
5 -6 37 0
-5 -6 -37 0
7 8 -38 0
-7 8 38 0
7 -8 38 0
-7 -8 -38 0
9 10 -39 0
-9 10 39 0
9 -10 39 0
-9 -10 -39 0
11 12 -40 0
-11 12 40 0
11 -12 40 0
-11 -12 -40 0
13 14 -41 0
-13 14 41 0
13 -14 41 0
-13 -14 -41 0
15 16 -42 0
-15 16 42 0
15 -16 42 0
-15 -16 -42 0
17 18 -43 0
-17 18 43 0
17 -18 43 0
-17 -18 -43 0
19 20 -44 0
-19 20 44 0
19 -20 44 0
-19 -20 -44 0
21 22 -45 0
-21 22 45 0
21 -22 45 0
-21 -22 -45 0
23 24 -46 0
-23 24 46 0
23 -24 46 0
-23 -24 -46 0
25 26 -47 0
-25 26 47 0
25 -26 47 0
-25 -26 -47 0
27 28 -48 0
-27 28 48 0
27 -28 48 0
-27 -28 -48 0
29 30 -49 0
-29 30 49 0
29 -30 49 0
-29 -30 -49 0
35 36 -50 0
-35 36 50 0
35 -36 50 0
-35 -36 -50 0
37 38 -51 0
-37 38 51 0
37 -38 51 0
-37 -38 -51 0
39 40 -52 0
-39 40 52 0
39 -40 52 0
-39 -40 -52 0
41 42 -53 0
-41 42 53 0
41 -42 53 0
-41 -42 -53 0
43 44 -54 0
-43 44 54 0
43 -44 54 0
-43 -44 -54 0
45 46 -55 0
-45 46 55 0
45 -46 55 0
-45 -46 -55 0
47 48 -56 0
-47 48 56 0
47 -48 56 0
-47 -48 -56 0
49 31 -57 0
-49 31 57 0
49 -31 57 0
-49 -31 -57 0
50 51 -58 0
-50 51 58 0
50 -51 58 0
-50 -51 -58 0
52 53 -59 0
-52 53 59 0
52 -53 59 0
-52 -53 -59 0
54 55 -60 0
-54 55 60 0
54 -55 60 0
-54 -55 -60 0
56 57 -61 0
-56 57 61 0
56 -57 61 0
-56 -57 -61 0
58 59 -62 0
-58 59 62 0
58 -59 62 0
-58 -59 -62 0
60 61 -63 0
-60 61 63 0
60 -61 63 0
-60 -61 -63 0
62 63 -32 0
-62 63 32 0
62 -63 32 0
-62 -63 -32 0
